c A SAT instance generated from a 3-CNF formula that had 44 clauses and 11 variables
p cnf 11 44
-8 -3 6 0
1 -4 -8 0
-3 -2 -9 0
6 5 -9 0
7 1 -10 0
1 -5 4 0
-4 -2 -9 0
-9 -2 -11 0
10 -8 3 0
-4 -11 10 0
1 -3 -11 0
-11 8 6 0
8 -2 -1 0
7 -11 3 0
2 11 -3 0
2 9 10 0
-10 8 4 0
-3 -2 8 0
-3 9 11 0
6 -2 9 0
-11 8 -7 0
-10 7 -3 0
11 -6 -2 0
-9 -10 7 0
-8 -9 4 0
-7 -4 -5 0
11 -4 6 0
7 5 -3 0
-8 -9 2 0
8 3 -1 0
2 -6 -11 0
1 11 -9 0
-11 7 -4 0
-3 -6 9 0
-8 -9 -2 0
8 10 -7 0
-3 -1 -9 0
11 10 6 0
-5 -9 -7 0
1 5 -3 0
3 8 -11 0
-2 1 -4 0
11 9 1 0
10 3 -1 0
